135735
6,32,37,15,10,73,16,50,71,80,42,56,2,59,46,48,33,11,24,41,22,54,1,29,78,68,77,14,60,5,27,34,58,7,82,67,43,21,23,64,49,3,51,40,38,62,52,30,18,4,47,36,9,28,63,0,17,12,72,44,45,79,61,25,70,69,13,75,66,19,65,35,53,20,8,76,57,31,81,74,39,55,26